[VALIDATOR STDOUT]
Type-checking walk
...action passes type checking.
Type-checking pickup_spanner
...action passes type checking.
Type-checking tighten_nut
...action passes type checking.
Checking plan: /home/jfan5/Safety-gen/runs/benchmark/optic/spanner_20260215_224300/spanner/optic_results/spanner-s8-n7-l12-s8001.plan
Plan to validate:

Plan size: 27
1:
(walk shed location1 bob)
 
2:
(walk location1 location2 bob)
 
3:
(walk location2 location3 bob)
 
4:
(walk location3 location4 bob)
 
5:
(walk location4 location5 bob)
 
6:
(pickup_spanner location5 spanner4 bob)
 
7:
(walk location5 location6 bob)
 
8:
(walk location6 location7 bob)
 
9:
(pickup_spanner location7 spanner8 bob)
 
10:
(walk location7 location8 bob)
 
11:
(walk location8 location9 bob)
 
12:
(walk location9 location10 bob)
 
13:
(pickup_spanner location10 spanner1 bob)
 
14:
(pickup_spanner location10 spanner2 bob)
 
15:
(pickup_spanner location10 spanner6 bob)
 
16:
(walk location10 location11 bob)
 
17:
(pickup_spanner location11 spanner7 bob)
 
18:
(walk location11 location12 bob)
 
19:
(pickup_spanner location12 spanner3 bob)
 
20:
(walk location12 gate bob)
 
21:
(tighten_nut gate spanner1 bob nut7)
 
22:
(tighten_nut gate spanner2 bob nut6)
 
23:
(tighten_nut gate spanner3 bob nut5)
 
24:
(tighten_nut gate spanner4 bob nut4)
 
25:
(tighten_nut gate spanner6 bob nut3)
 
26:
(tighten_nut gate spanner7 bob nut2)
 
27:
(tighten_nut gate spanner8 bob nut1)
 

Plan Validation details
-----------------------

Checking next happening (time 1)
Deleting (at bob shed)
Adding (at bob location1)

Checking next happening (time 2)
Deleting (at bob location1)
Adding (at bob location2)

Checking next happening (time 3)
Deleting (at bob location2)
Adding (at bob location3)

Checking next happening (time 4)
Deleting (at bob location3)
Adding (at bob location4)

Checking next happening (time 5)
Deleting (at bob location4)
Adding (at bob location5)

Checking next happening (time 6)
Deleting (at spanner4 location5)
Adding (carrying bob spanner4)

Checking next happening (time 7)
Deleting (at bob location5)
Adding (at bob location6)

Checking next happening (time 8)
Deleting (at bob location6)
Adding (at bob location7)

Checking next happening (time 9)
Deleting (at spanner8 location7)
Adding (carrying bob spanner8)

Checking next happening (time 10)
Deleting (at bob location7)
Adding (at bob location8)

Checking next happening (time 11)
Deleting (at bob location8)
Adding (at bob location9)

Checking next happening (time 12)
Deleting (at bob location9)
Adding (at bob location10)

Checking next happening (time 13)
Deleting (at spanner1 location10)
Adding (carrying bob spanner1)

Checking next happening (time 14)
Deleting (at spanner2 location10)
Adding (carrying bob spanner2)

Checking next happening (time 15)
Deleting (at spanner6 location10)
Adding (carrying bob spanner6)

Checking next happening (time 16)
Deleting (at bob location10)
Adding (at bob location11)

Checking next happening (time 17)
Deleting (at spanner7 location11)
Adding (carrying bob spanner7)

Checking next happening (time 18)
Deleting (at bob location11)
Adding (at bob location12)

Checking next happening (time 19)
Deleting (at spanner3 location12)
Adding (carrying bob spanner3)

Checking next happening (time 20)
Deleting (at bob location12)
Adding (at bob gate)

Checking next happening (time 21)
Deleting (loose nut7)
Deleting (useable spanner1)
Adding (tightened nut7)

Checking next happening (time 22)
Deleting (loose nut6)
Deleting (useable spanner2)
Adding (tightened nut6)

Checking next happening (time 23)
Deleting (loose nut5)
Deleting (useable spanner3)
Adding (tightened nut5)

Checking next happening (time 24)
Deleting (loose nut4)
Deleting (useable spanner4)
Adding (tightened nut4)

Checking next happening (time 25)
Deleting (loose nut3)
Deleting (useable spanner6)
Adding (tightened nut3)

Checking next happening (time 26)
Deleting (loose nut2)
Deleting (useable spanner7)
Adding (tightened nut2)

Checking next happening (time 27)
Deleting (loose nut1)
Deleting (useable spanner8)
Adding (tightened nut1)
Plan executed successfully - checking goal
Plan valid
Final value: 27 

Successful plans:
Value: 27
 /home/jfan5/Safety-gen/runs/benchmark/optic/spanner_20260215_224300/spanner/optic_results/spanner-s8-n7-l12-s8001.plan 27
